NAME weathering_srl_ilp
* Max problem is converted into Min one
ROWS
 N  OBJ
 L  constraint1_5650
 L  constraint1_7420
 L  constraint1_2071
 L  constraint1_2070
 L  constraint1_4150
 L  constraint1_1710
 L  constraint1_1780
 L  constraint1_2579
 L  constraint1_2570
 L  constraint1_2572
 L  constraint1_2571
 L  constraint1_6410
 L  constraint1_1760
 L  constraint1_1761
 L  constraint1_4190
 L  constraint1_4680
 L  constraint1_4681
 L  constraint1_4770
 L  constraint1_4771
 L  constraint1_6580
 L  constraint1_1140
 L  constraint1_1141
 L  constraint1_5811
 L  constraint1_5810
 L  constraint1_970
 L  constraint1_7320
 L  constraint1_7321
 L  constraint1_6740
 L  constraint1_6741
 L  constraint1_4790
 L  constraint1_6981
 L  constraint1_6983
 L  constraint1_6980
 L  constraint1_6982
 L  constraint2_5650
 L  constraint2_5651
 L  constraint2_5652
 L  constraint2_5653
 L  constraint2_7420
 L  constraint2_7421
 L  constraint2_7422
 L  constraint2_7423
 L  constraint2_2070
 L  constraint2_2071
 L  constraint2_2072
 L  constraint2_2073
 L  constraint2_4150
 L  constraint2_4151
 L  constraint2_4152
 L  constraint2_4153
 L  constraint2_1710
 L  constraint2_1711
 L  constraint2_1712
 L  constraint2_1713
 L  constraint2_1780
 L  constraint2_1781
 L  constraint2_1782
 L  constraint2_1783
 L  constraint2_2570
 L  constraint2_2571
 L  constraint2_2572
 L  constraint2_2573
 L  constraint2_6410
 L  constraint2_6411
 L  constraint2_6412
 L  constraint2_6413
 L  constraint2_2220
 L  constraint2_2221
 L  constraint2_2222
 L  constraint2_2223
 L  constraint2_1760
 L  constraint2_1761
 L  constraint2_1762
 L  constraint2_1763
 L  constraint2_4190
 L  constraint2_4191
 L  constraint2_4192
 L  constraint2_4193
 L  constraint2_2250
 L  constraint2_2251
 L  constraint2_2252
 L  constraint2_2253
 L  constraint2_4680
 L  constraint2_4681
 L  constraint2_4682
 L  constraint2_4683
 L  constraint2_4770
 L  constraint2_4771
 L  constraint2_4772
 L  constraint2_4773
 L  constraint2_2110
 L  constraint2_2111
 L  constraint2_2112
 L  constraint2_2113
 L  constraint2_6580
 L  constraint2_6581
 L  constraint2_6582
 L  constraint2_6583
 L  constraint2_1140
 L  constraint2_1141
 L  constraint2_1142
 L  constraint2_1143
 L  constraint2_5810
 L  constraint2_5811
 L  constraint2_5812
 L  constraint2_5813
 L  constraint2_3750
 L  constraint2_3751
 L  constraint2_3752
 L  constraint2_3753
 L  constraint2_970
 L  constraint2_971
 L  constraint2_972
 L  constraint2_973
 L  constraint2_7320
 L  constraint2_7321
 L  constraint2_7322
 L  constraint2_7323
 L  constraint2_1680
 L  constraint2_1681
 L  constraint2_1682
 L  constraint2_1683
 L  constraint2_6740
 L  constraint2_6741
 L  constraint2_6742
 L  constraint2_6743
 L  constraint2_5720
 L  constraint2_5721
 L  constraint2_5722
 L  constraint2_5723
 L  constraint2_3530
 L  constraint2_3531
 L  constraint2_3532
 L  constraint2_3533
 L  constraint2_10
 L  constraint2_11
 L  constraint2_12
 L  constraint2_13
 L  constraint2_4790
 L  constraint2_4791
 L  constraint2_4792
 L  constraint2_4793
 L  constraint2_6980
 L  constraint2_6981
 L  constraint2_6982
 L  constraint2_6983
COLUMNS
    MARKER    'MARKER'                 'INTORG'
    Z_565_0_0  OBJ       -1.0246590073596153e-03
    Z_565_0_0  constraint1_5650  1
    Z_565_0_0  constraint2_5650  1
    Z_565_0_1  OBJ       -2.1822474825364108e-04
    Z_565_0_1  constraint1_5650  1
    Z_565_0_1  constraint2_5651  1
    Z_565_0_2  OBJ       -1.3561275742484755e-02
    Z_565_0_2  constraint1_5650  1
    Z_565_0_2  constraint2_5652  1
    Z_565_0_3  OBJ       -6.9343343483479170e-01
    Z_565_0_3  constraint1_5650  1
    Z_565_0_3  constraint2_5653  1
    Z_565_0_4  OBJ       -1.9176240566711025e-01
    Z_565_0_4  constraint1_5650  1
    Z_742_0_0  OBJ       -1.1029155958638609e-04
    Z_742_0_0  constraint1_7420  1
    Z_742_0_0  constraint2_7420  1
    Z_742_0_1  OBJ       -1.7061348118369872e-03
    Z_742_0_1  constraint1_7420  1
    Z_742_0_1  constraint2_7421  1
    Z_742_0_2  OBJ       -8.5810877553222509e-01
    Z_742_0_2  constraint1_7420  1
    Z_742_0_2  constraint2_7422  1
    Z_742_0_3  OBJ       -1.3548328473628210e-03
    Z_742_0_3  constraint1_7420  1
    Z_742_0_3  constraint2_7423  1
    Z_742_0_4  OBJ       -3.8719965248988707e-02
    Z_742_0_4  constraint1_7420  1
    Z_207_1_0  OBJ       -9.2934396045991495e-04
    Z_207_1_0  constraint1_2071  1
    Z_207_1_0  constraint2_2070  1
    Z_207_1_1  OBJ       -4.9131182944981344e-04
    Z_207_1_1  constraint1_2071  1
    Z_207_1_1  constraint2_2071  1
    Z_207_1_2  OBJ       -8.8300943469987836e-01
    Z_207_1_2  constraint1_2071  1
    Z_207_1_2  constraint2_2072  1
    Z_207_1_3  OBJ       -3.6156277919795680e-03
    Z_207_1_3  constraint1_2071  1
    Z_207_1_3  constraint2_2073  1
    Z_207_1_4  OBJ       -1.1954281718232469e-02
    Z_207_1_4  constraint1_2071  1
    Z_207_0_0  OBJ       -1.4647195241767740e-02
    Z_207_0_0  constraint1_2070  1
    Z_207_0_0  constraint2_2070  1
    Z_207_0_1  OBJ       -3.6008483673300277e-02
    Z_207_0_1  constraint1_2070  1
    Z_207_0_1  constraint2_2071  1
    Z_207_0_2  OBJ       -4.9584128839094679e-03
    Z_207_0_2  constraint1_2070  1
    Z_207_0_2  constraint2_2072  1
    Z_207_0_3  OBJ       -7.4211310303305078e-01
    Z_207_0_3  constraint1_2070  1
    Z_207_0_3  constraint2_2073  1
    Z_207_0_4  OBJ       -1.0227280516797177e-01
    Z_207_0_4  constraint1_2070  1
    Z_415_0_0  OBJ       -4.0606575944844841e-04
    Z_415_0_0  constraint1_4150  1
    Z_415_0_0  constraint2_4150  1
    Z_415_0_1  OBJ       -5.7701392323323145e-03
    Z_415_0_1  constraint1_4150  1
    Z_415_0_1  constraint2_4151  1
    Z_415_0_2  OBJ       -3.7640886239740134e-01
    Z_415_0_2  constraint1_4150  1
    Z_415_0_2  constraint2_4152  1
    Z_415_0_3  OBJ       -8.5024304300597812e-03
    Z_415_0_3  constraint1_4150  1
    Z_415_0_3  constraint2_4153  1
    Z_415_0_4  OBJ       -5.0891250218075812e-01
    Z_415_0_4  constraint1_4150  1
    Z_171_0_0  OBJ       -6.7042899744594686e-01
    Z_171_0_0  constraint1_1710  1
    Z_171_0_0  constraint2_1710  1
    Z_171_0_1  OBJ       -1.6073098022667546e-02
    Z_171_0_1  constraint1_1710  1
    Z_171_0_1  constraint2_1711  1
    Z_171_0_2  OBJ       -1.4906054351552149e-02
    Z_171_0_2  constraint1_1710  1
    Z_171_0_2  constraint2_1712  1
    Z_171_0_3  OBJ       -1.2625093039814497e-01
    Z_171_0_3  constraint1_1710  1
    Z_171_0_3  constraint2_1713  1
    Z_171_0_4  OBJ       -7.2340919781688495e-02
    Z_171_0_4  constraint1_1710  1
    Z_178_0_0  OBJ       -1.4975894311127569e-03
    Z_178_0_0  constraint1_1780  1
    Z_178_0_0  constraint2_1780  1
    Z_178_0_1  OBJ       -2.2109217831821808e-03
    Z_178_0_1  constraint1_1780  1
    Z_178_0_1  constraint2_1781  1
    Z_178_0_2  OBJ       -4.1683475877729706e-02
    Z_178_0_2  constraint1_1780  1
    Z_178_0_2  constraint2_1782  1
    Z_178_0_3  OBJ       -5.1015850201544435e-02
    Z_178_0_3  constraint1_1780  1
    Z_178_0_3  constraint2_1783  1
    Z_178_0_4  OBJ       -8.0359216270643086e-01
    Z_178_0_4  constraint1_1780  1
    Z_257_9_0  OBJ       -4.4159738455711169e-04
    Z_257_9_0  constraint1_2579  1
    Z_257_9_0  constraint2_2570  1
    Z_257_9_1  OBJ       -5.1040198195832927e-04
    Z_257_9_1  constraint1_2579  1
    Z_257_9_1  constraint2_2571  1
    Z_257_9_2  OBJ       -5.0161727267009859e-01
    Z_257_9_2  constraint1_2579  1
    Z_257_9_2  constraint2_2572  1
    Z_257_9_3  OBJ       -1.4843599774567566e-03
    Z_257_9_3  constraint1_2579  1
    Z_257_9_3  constraint2_2573  1
    Z_257_9_4  OBJ       -3.9594636798592919e-01
    Z_257_9_4  constraint1_2579  1
    Z_257_0_0  OBJ       -4.4159738455711169e-04
    Z_257_0_0  constraint1_2570  1
    Z_257_0_0  constraint2_2570  1
    Z_257_0_1  OBJ       -5.1040198195832927e-04
    Z_257_0_1  constraint1_2570  1
    Z_257_0_1  constraint2_2571  1
    Z_257_0_2  OBJ       -5.0161727267009859e-01
    Z_257_0_2  constraint1_2570  1
    Z_257_0_2  constraint2_2572  1
    Z_257_0_3  OBJ       -1.4843599774567566e-03
    Z_257_0_3  constraint1_2570  1
    Z_257_0_3  constraint2_2573  1
    Z_257_0_4  OBJ       -3.9594636798592919e-01
    Z_257_0_4  constraint1_2570  1
    Z_257_2_0  OBJ       -6.8442159435453431e-01
    Z_257_2_0  constraint1_2572  1
    Z_257_2_0  constraint2_2570  1
    Z_257_2_1  OBJ       -2.3072216703707113e-02
    Z_257_2_1  constraint1_2572  1
    Z_257_2_1  constraint2_2571  1
    Z_257_2_2  OBJ       -1.5986034421279056e-02
    Z_257_2_2  constraint1_2572  1
    Z_257_2_2  constraint2_2572  1
    Z_257_2_3  OBJ       -5.4065873353626073e-02
    Z_257_2_3  constraint1_2572  1
    Z_257_2_3  constraint2_2573  1
    Z_257_2_4  OBJ       -1.2245428116685352e-01
    Z_257_2_4  constraint1_2572  1
    Z_257_1_0  OBJ       -7.2392234058849064e-02
    Z_257_1_0  constraint1_2571  1
    Z_257_1_0  constraint2_2570  1
    Z_257_1_1  OBJ       -5.4091676594525406e-02
    Z_257_1_1  constraint1_2571  1
    Z_257_1_1  constraint2_2571  1
    Z_257_1_2  OBJ       -4.9185075986768129e-03
    Z_257_1_2  constraint1_2571  1
    Z_257_1_2  constraint2_2572  1
    Z_257_1_3  OBJ       -5.9156742720651445e-01
    Z_257_1_3  constraint1_2571  1
    Z_257_1_3  constraint2_2573  1
    Z_257_1_4  OBJ       -1.7703015454143414e-01
    Z_257_1_4  constraint1_2571  1
    Z_641_0_0  OBJ       -7.7637248664004131e-04
    Z_641_0_0  constraint1_6410  1
    Z_641_0_0  constraint2_6410  1
    Z_641_0_1  OBJ       -5.2174249287136986e-04
    Z_641_0_1  constraint1_6410  1
    Z_641_0_1  constraint2_6411  1
    Z_641_0_2  OBJ       -1.2283339700447793e-02
    Z_641_0_2  constraint1_6410  1
    Z_641_0_2  constraint2_6412  1
    Z_641_0_3  OBJ       -8.4342676266277361e-01
    Z_641_0_3  constraint1_6410  1
    Z_641_0_3  constraint2_6413  1
    Z_641_0_4  OBJ       -4.2991782657267219e-02
    Z_641_0_4  constraint1_6410  1
    Z_176_0_0  OBJ       -2.1476796432807643e-02
    Z_176_0_0  constraint1_1760  1
    Z_176_0_0  constraint2_1760  1
    Z_176_0_1  OBJ       -5.9550948037542326e-03
    Z_176_0_1  constraint1_1760  1
    Z_176_0_1  constraint2_1761  1
    Z_176_0_2  OBJ       -1.2839045174019655e-02
    Z_176_0_2  constraint1_1760  1
    Z_176_0_2  constraint2_1762  1
    Z_176_0_3  OBJ       -6.7979924099452238e-01
    Z_176_0_3  constraint1_1760  1
    Z_176_0_3  constraint2_1763  1
    Z_176_0_4  OBJ       -1.7992982259489615e-01
    Z_176_0_4  constraint1_1760  1
    Z_176_1_0  OBJ       -9.6597702397420394e-04
    Z_176_1_0  constraint1_1761  1
    Z_176_1_0  constraint2_1760  1
    Z_176_1_1  OBJ       -4.8651264214181111e-04
    Z_176_1_1  constraint1_1761  1
    Z_176_1_1  constraint2_1761  1
    Z_176_1_2  OBJ       -8.4883009838529622e-01
    Z_176_1_2  constraint1_1761  1
    Z_176_1_2  constraint2_1762  1
    Z_176_1_3  OBJ       -3.2106564678190822e-03
    Z_176_1_3  constraint1_1761  1
    Z_176_1_3  constraint2_1763  1
    Z_176_1_4  OBJ       -4.6506755480768790e-02
    Z_176_1_4  constraint1_1761  1
    Z_419_0_0  OBJ       -5.8356062927555541e-01
    Z_419_0_0  constraint1_4190  1
    Z_419_0_0  constraint2_4190  1
    Z_419_0_1  OBJ       -4.1794996590937640e-02
    Z_419_0_1  constraint1_4190  1
    Z_419_0_1  constraint2_4191  1
    Z_419_0_2  OBJ       -4.0159715846406156e-03
    Z_419_0_2  constraint1_4190  1
    Z_419_0_2  constraint2_4192  1
    Z_419_0_3  OBJ       -2.0940245728367987e-01
    Z_419_0_3  constraint1_4190  1
    Z_419_0_3  constraint2_4193  1
    Z_419_0_4  OBJ       -6.1225945265186432e-02
    Z_419_0_4  constraint1_4190  1
    Z_468_0_0  OBJ       -6.8061814050154590e-01
    Z_468_0_0  constraint1_4680  1
    Z_468_0_0  constraint2_4680  1
    Z_468_0_1  OBJ       -2.2204787841575382e-02
    Z_468_0_1  constraint1_4680  1
    Z_468_0_1  constraint2_4681  1
    Z_468_0_2  OBJ       -2.0824466685017282e-02
    Z_468_0_2  constraint1_4680  1
    Z_468_0_2  constraint2_4682  1
    Z_468_0_3  OBJ       -1.2586583556537237e-01
    Z_468_0_3  constraint1_4680  1
    Z_468_0_3  constraint2_4683  1
    Z_468_0_4  OBJ       -5.0486769406488996e-02
    Z_468_0_4  constraint1_4680  1
    Z_468_1_0  OBJ       -1.0600671787020491e-03
    Z_468_1_0  constraint1_4681  1
    Z_468_1_0  constraint2_4680  1
    Z_468_1_1  OBJ       -4.4608473493660481e-04
    Z_468_1_1  constraint1_4681  1
    Z_468_1_1  constraint2_4681  1
    Z_468_1_2  OBJ       -5.4375308758835628e-01
    Z_468_1_2  constraint1_4681  1
    Z_468_1_2  constraint2_4682  1
    Z_468_1_3  OBJ       -2.9406333319455958e-03
    Z_468_1_3  constraint1_4681  1
    Z_468_1_3  constraint2_4683  1
    Z_468_1_4  OBJ       -3.5180012716605968e-01
    Z_468_1_4  constraint1_4681  1
    Z_477_0_0  OBJ       -6.8442159435453431e-01
    Z_477_0_0  constraint1_4770  1
    Z_477_0_0  constraint2_4770  1
    Z_477_0_1  OBJ       -2.3072216703707113e-02
    Z_477_0_1  constraint1_4770  1
    Z_477_0_1  constraint2_4771  1
    Z_477_0_2  OBJ       -1.5986034421279056e-02
    Z_477_0_2  constraint1_4770  1
    Z_477_0_2  constraint2_4772  1
    Z_477_0_3  OBJ       -5.4065873353626073e-02
    Z_477_0_3  constraint1_4770  1
    Z_477_0_3  constraint2_4773  1
    Z_477_0_4  OBJ       -1.2245428116685352e-01
    Z_477_0_4  constraint1_4770  1
    Z_477_1_0  OBJ       -7.3573954586248977e-04
    Z_477_1_0  constraint1_4771  1
    Z_477_1_0  constraint2_4770  1
    Z_477_1_1  OBJ       -4.5583232602549619e-04
    Z_477_1_1  constraint1_4771  1
    Z_477_1_1  constraint2_4771  1
    Z_477_1_2  OBJ       -4.2532763955967812e-01
    Z_477_1_2  constraint1_4771  1
    Z_477_1_2  constraint2_4772  1
    Z_477_1_3  OBJ       -3.3582380215439224e-03
    Z_477_1_3  constraint1_4771  1
    Z_477_1_3  constraint2_4773  1
    Z_477_1_4  OBJ       -4.7012255054689012e-01
    Z_477_1_4  constraint1_4771  1
    Z_658_0_0  OBJ       -4.7326510786704565e-03
    Z_658_0_0  constraint1_6580  1
    Z_658_0_0  constraint2_6580  1
    Z_658_0_1  OBJ       -8.1326579044320868e-01
    Z_658_0_1  constraint1_6580  1
    Z_658_0_1  constraint2_6581  1
    Z_658_0_2  OBJ       -5.4876135410538091e-03
    Z_658_0_2  constraint1_6580  1
    Z_658_0_2  constraint2_6582  1
    Z_658_0_3  OBJ       -3.0572672128297432e-03
    Z_658_0_3  constraint1_6580  1
    Z_658_0_3  constraint2_6583  1
    Z_658_0_4  OBJ       -7.3456677724237307e-02
    Z_658_0_4  constraint1_6580  1
    Z_114_0_0  OBJ       -5.8356062927555541e-01
    Z_114_0_0  constraint1_1140  1
    Z_114_0_0  constraint2_1140  1
    Z_114_0_1  OBJ       -4.1794996590937640e-02
    Z_114_0_1  constraint1_1140  1
    Z_114_0_1  constraint2_1141  1
    Z_114_0_2  OBJ       -4.0159715846406156e-03
    Z_114_0_2  constraint1_1140  1
    Z_114_0_2  constraint2_1142  1
    Z_114_0_3  OBJ       -2.0940245728367987e-01
    Z_114_0_3  constraint1_1140  1
    Z_114_0_3  constraint2_1143  1
    Z_114_0_4  OBJ       -6.1225945265186432e-02
    Z_114_0_4  constraint1_1140  1
    Z_114_1_0  OBJ       -1.1105480881041614e-03
    Z_114_1_0  constraint1_1141  1
    Z_114_1_0  constraint2_1140  1
    Z_114_1_1  OBJ       -5.7806356097809956e-04
    Z_114_1_1  constraint1_1141  1
    Z_114_1_1  constraint2_1141  1
    Z_114_1_2  OBJ       -6.8661491243100614e-01
    Z_114_1_2  constraint1_1141  1
    Z_114_1_2  constraint2_1142  1
    Z_114_1_3  OBJ       -1.8054393756301772e-03
    Z_114_1_3  constraint1_1141  1
    Z_114_1_3  constraint2_1143  1
    Z_114_1_4  OBJ       -2.0989103654428157e-01
    Z_114_1_4  constraint1_1141  1
    Z_581_1_0  OBJ       -3.9430368751777598e-04
    Z_581_1_0  constraint1_5811  1
    Z_581_1_0  constraint2_5810  1
    Z_581_1_1  OBJ       -7.4216470661197099e-04
    Z_581_1_1  constraint1_5811  1
    Z_581_1_1  constraint2_5811  1
    Z_581_1_2  OBJ       -8.7054576255680427e-01
    Z_581_1_2  constraint1_5811  1
    Z_581_1_2  constraint2_5812  1
    Z_581_1_3  OBJ       -1.4561770332569737e-03
    Z_581_1_3  constraint1_5811  1
    Z_581_1_3  constraint2_5813  1
    Z_581_1_4  OBJ       -2.6861592015808979e-02
    Z_581_1_4  constraint1_5811  1
    Z_581_0_0  OBJ       -2.5222171330150867e-02
    Z_581_0_0  constraint1_5810  1
    Z_581_0_0  constraint2_5810  1
    Z_581_0_1  OBJ       -1.9169252796493494e-02
    Z_581_0_1  constraint1_5810  1
    Z_581_0_1  constraint2_5811  1
    Z_581_0_2  OBJ       -3.4260579344547962e-03
    Z_581_0_2  constraint1_5810  1
    Z_581_0_2  constraint2_5812  1
    Z_581_0_3  OBJ       -7.5571692556039094e-01
    Z_581_0_3  constraint1_5810  1
    Z_581_0_3  constraint2_5813  1
    Z_581_0_4  OBJ       -9.6465592378509976e-02
    Z_581_0_4  constraint1_5810  1
    Z_97_0_0  OBJ       -6.9098377027940552e-04
    Z_97_0_0  constraint1_970  1
    Z_97_0_0  constraint2_970  1
    Z_97_0_1  OBJ       -1.7522212505795792e-03
    Z_97_0_1  constraint1_970  1
    Z_97_0_1  constraint2_971  1
    Z_97_0_2  OBJ       -1.0134430284529433e-03
    Z_97_0_2  constraint1_970  1
    Z_97_0_2  constraint2_972  1
    Z_97_0_3  OBJ       -3.3719169560915674e-01
    Z_97_0_3  constraint1_970  1
    Z_97_0_3  constraint2_973  1
    Z_97_0_4  OBJ       -5.5935165634153128e-01
    Z_97_0_4  constraint1_970  1
    Z_732_0_0  OBJ       -5.7039108597106714e-01
    Z_732_0_0  constraint1_7320  1
    Z_732_0_0  constraint2_7320  1
    Z_732_0_1  OBJ       -7.2197530217023451e-02
    Z_732_0_1  constraint1_7320  1
    Z_732_0_1  constraint2_7321  1
    Z_732_0_2  OBJ       -1.4674502116293572e-03
    Z_732_0_2  constraint1_7320  1
    Z_732_0_2  constraint2_7322  1
    Z_732_0_3  OBJ       -6.4653493349377630e-02
    Z_732_0_3  constraint1_7320  1
    Z_732_0_3  constraint2_7323  1
    Z_732_0_4  OBJ       -1.9129044025090242e-01
    Z_732_0_4  constraint1_7320  1
    Z_732_1_0  OBJ       -4.7047913786157675e-04
    Z_732_1_0  constraint1_7321  1
    Z_732_1_0  constraint2_7320  1
    Z_732_1_1  OBJ       -6.6819174768830726e-04
    Z_732_1_1  constraint1_7321  1
    Z_732_1_1  constraint2_7321  1
    Z_732_1_2  OBJ       -7.2515351245530613e-01
    Z_732_1_2  constraint1_7321  1
    Z_732_1_2  constraint2_7322  1
    Z_732_1_3  OBJ       -9.8011792956035531e-04
    Z_732_1_3  constraint1_7321  1
    Z_732_1_3  constraint2_7323  1
    Z_732_1_4  OBJ       -1.7272769872958366e-01
    Z_732_1_4  constraint1_7321  1
    Z_674_0_0  OBJ       -6.4591992437793144e-01
    Z_674_0_0  constraint1_6740  1
    Z_674_0_0  constraint2_6740  1
    Z_674_0_1  OBJ       -1.2705872529081916e-01
    Z_674_0_1  constraint1_6740  1
    Z_674_0_1  constraint2_6741  1
    Z_674_0_2  OBJ       -1.4051354353342593e-02
    Z_674_0_2  constraint1_6740  1
    Z_674_0_2  constraint2_6742  1
    Z_674_0_3  OBJ       -2.3708842152894895e-02
    Z_674_0_3  constraint1_6740  1
    Z_674_0_3  constraint2_6743  1
    Z_674_0_4  OBJ       -8.9261153825011944e-02
    Z_674_0_4  constraint1_6740  1
    Z_674_1_0  OBJ       -7.5120728229682659e-04
    Z_674_1_0  constraint1_6741  1
    Z_674_1_0  constraint2_6740  1
    Z_674_1_1  OBJ       -4.6036061823135163e-04
    Z_674_1_1  constraint1_6741  1
    Z_674_1_1  constraint2_6741  1
    Z_674_1_2  OBJ       -4.1034028188503036e-01
    Z_674_1_2  constraint1_6741  1
    Z_674_1_2  constraint2_6742  1
    Z_674_1_3  OBJ       -3.3971026612355901e-03
    Z_674_1_3  constraint1_6741  1
    Z_674_1_3  constraint2_6743  1
    Z_674_1_4  OBJ       -4.8505104755320599e-01
    Z_674_1_4  constraint1_6741  1
    Z_479_0_0  OBJ       -8.1030094432892530e-04
    Z_479_0_0  constraint1_4790  1
    Z_479_0_0  constraint2_4790  1
    Z_479_0_1  OBJ       -8.9073242965682247e-04
    Z_479_0_1  constraint1_4790  1
    Z_479_0_1  constraint2_4791  1
    Z_479_0_2  OBJ       -5.2076108932189981e-02
    Z_479_0_2  constraint1_4790  1
    Z_479_0_2  constraint2_4792  1
    Z_479_0_3  OBJ       -7.3233496511407981e-01
    Z_479_0_3  constraint1_4790  1
    Z_479_0_3  constraint2_4793  1
    Z_479_0_4  OBJ       -1.1388789257974456e-01
    Z_479_0_4  constraint1_4790  1
    Z_698_1_0  OBJ       -8.8518505913421275e-04
    Z_698_1_0  constraint1_6981  1
    Z_698_1_0  constraint2_6980  1
    Z_698_1_1  OBJ       -4.4847281728456712e-04
    Z_698_1_1  constraint1_6981  1
    Z_698_1_1  constraint2_6981  1
    Z_698_1_2  OBJ       -1.9814353635898410e-02
    Z_698_1_2  constraint1_6981  1
    Z_698_1_2  constraint2_6982  1
    Z_698_1_3  OBJ       -2.2251336921406840e-02
    Z_698_1_3  constraint1_6981  1
    Z_698_1_3  constraint2_6983  1
    Z_698_1_4  OBJ       -8.5660065156627585e-01
    Z_698_1_4  constraint1_6981  1
    Z_698_3_0  OBJ       -4.8392340750040919e-03
    Z_698_3_0  constraint1_6983  1
    Z_698_3_0  constraint2_6980  1
    Z_698_3_1  OBJ       -3.3885830613561374e-02
    Z_698_3_1  constraint1_6983  1
    Z_698_3_1  constraint2_6981  1
    Z_698_3_2  OBJ       -2.0977156350926830e-02
    Z_698_3_2  constraint1_6983  1
    Z_698_3_2  constraint2_6982  1
    Z_698_3_3  OBJ       -4.2450212378630708e-01
    Z_698_3_3  constraint1_6983  1
    Z_698_3_3  constraint2_6983  1
    Z_698_3_4  OBJ       -4.1579565517420064e-01
    Z_698_3_4  constraint1_6983  1
    Z_698_0_0  OBJ       -2.0070681492150372e-04
    Z_698_0_0  constraint1_6980  1
    Z_698_0_0  constraint2_6980  1
    Z_698_0_1  OBJ       -4.5360542116446441e-04
    Z_698_0_1  constraint1_6980  1
    Z_698_0_1  constraint2_6981  1
    Z_698_0_2  OBJ       -8.8115256408009194e-04
    Z_698_0_2  constraint1_6980  1
    Z_698_0_2  constraint2_6982  1
    Z_698_0_3  OBJ       -6.2720083327800838e-03
    Z_698_0_3  constraint1_6980  1
    Z_698_0_3  constraint2_6983  1
    Z_698_0_4  OBJ       -8.9219252686705397e-01
    Z_698_0_4  constraint1_6980  1
    Z_698_2_0  OBJ       -4.8392340750040919e-03
    Z_698_2_0  constraint1_6982  1
    Z_698_2_0  constraint2_6980  1
    Z_698_2_1  OBJ       -3.3885830613561374e-02
    Z_698_2_1  constraint1_6982  1
    Z_698_2_1  constraint2_6981  1
    Z_698_2_2  OBJ       -2.0977156350926830e-02
    Z_698_2_2  constraint1_6982  1
    Z_698_2_2  constraint2_6982  1
    Z_698_2_3  OBJ       -4.2450212378630708e-01
    Z_698_2_3  constraint1_6982  1
    Z_698_2_3  constraint2_6983  1
    Z_698_2_4  OBJ       -4.1579565517420064e-01
    Z_698_2_4  constraint1_6982  1
    MARKER    'MARKER'                 'INTEND'
RHS
    RHS1      constraint1_5650  1
    RHS1      constraint1_7420  1
    RHS1      constraint1_2071  1
    RHS1      constraint1_2070  1
    RHS1      constraint1_4150  1
    RHS1      constraint1_1710  1
    RHS1      constraint1_1780  1
    RHS1      constraint1_2579  1
    RHS1      constraint1_2570  1
    RHS1      constraint1_2572  1
    RHS1      constraint1_2571  1
    RHS1      constraint1_6410  1
    RHS1      constraint1_1760  1
    RHS1      constraint1_1761  1
    RHS1      constraint1_4190  1
    RHS1      constraint1_4680  1
    RHS1      constraint1_4681  1
    RHS1      constraint1_4770  1
    RHS1      constraint1_4771  1
    RHS1      constraint1_6580  1
    RHS1      constraint1_1140  1
    RHS1      constraint1_1141  1
    RHS1      constraint1_5811  1
    RHS1      constraint1_5810  1
    RHS1      constraint1_970  1
    RHS1      constraint1_7320  1
    RHS1      constraint1_7321  1
    RHS1      constraint1_6740  1
    RHS1      constraint1_6741  1
    RHS1      constraint1_4790  1
    RHS1      constraint1_6981  1
    RHS1      constraint1_6983  1
    RHS1      constraint1_6980  1
    RHS1      constraint1_6982  1
    RHS1      constraint2_5650  1
    RHS1      constraint2_5651  1
    RHS1      constraint2_5652  1
    RHS1      constraint2_5653  1
    RHS1      constraint2_7420  1
    RHS1      constraint2_7421  1
    RHS1      constraint2_7422  1
    RHS1      constraint2_7423  1
    RHS1      constraint2_2070  1
    RHS1      constraint2_2071  1
    RHS1      constraint2_2072  1
    RHS1      constraint2_2073  1
    RHS1      constraint2_4150  1
    RHS1      constraint2_4151  1
    RHS1      constraint2_4152  1
    RHS1      constraint2_4153  1
    RHS1      constraint2_1710  1
    RHS1      constraint2_1711  1
    RHS1      constraint2_1712  1
    RHS1      constraint2_1713  1
    RHS1      constraint2_1780  1
    RHS1      constraint2_1781  1
    RHS1      constraint2_1782  1
    RHS1      constraint2_1783  1
    RHS1      constraint2_2570  1
    RHS1      constraint2_2571  1
    RHS1      constraint2_2572  1
    RHS1      constraint2_2573  1
    RHS1      constraint2_6410  1
    RHS1      constraint2_6411  1
    RHS1      constraint2_6412  1
    RHS1      constraint2_6413  1
    RHS1      constraint2_2220  1
    RHS1      constraint2_2221  1
    RHS1      constraint2_2222  1
    RHS1      constraint2_2223  1
    RHS1      constraint2_1760  1
    RHS1      constraint2_1761  1
    RHS1      constraint2_1762  1
    RHS1      constraint2_1763  1
    RHS1      constraint2_4190  1
    RHS1      constraint2_4191  1
    RHS1      constraint2_4192  1
    RHS1      constraint2_4193  1
    RHS1      constraint2_2250  1
    RHS1      constraint2_2251  1
    RHS1      constraint2_2252  1
    RHS1      constraint2_2253  1
    RHS1      constraint2_4680  1
    RHS1      constraint2_4681  1
    RHS1      constraint2_4682  1
    RHS1      constraint2_4683  1
    RHS1      constraint2_4770  1
    RHS1      constraint2_4771  1
    RHS1      constraint2_4772  1
    RHS1      constraint2_4773  1
    RHS1      constraint2_2110  1
    RHS1      constraint2_2111  1
    RHS1      constraint2_2112  1
    RHS1      constraint2_2113  1
    RHS1      constraint2_6580  1
    RHS1      constraint2_6581  1
    RHS1      constraint2_6582  1
    RHS1      constraint2_6583  1
    RHS1      constraint2_1140  1
    RHS1      constraint2_1141  1
    RHS1      constraint2_1142  1
    RHS1      constraint2_1143  1
    RHS1      constraint2_5810  1
    RHS1      constraint2_5811  1
    RHS1      constraint2_5812  1
    RHS1      constraint2_5813  1
    RHS1      constraint2_3750  1
    RHS1      constraint2_3751  1
    RHS1      constraint2_3752  1
    RHS1      constraint2_3753  1
    RHS1      constraint2_970  1
    RHS1      constraint2_971  1
    RHS1      constraint2_972  1
    RHS1      constraint2_973  1
    RHS1      constraint2_7320  1
    RHS1      constraint2_7321  1
    RHS1      constraint2_7322  1
    RHS1      constraint2_7323  1
    RHS1      constraint2_1680  1
    RHS1      constraint2_1681  1
    RHS1      constraint2_1682  1
    RHS1      constraint2_1683  1
    RHS1      constraint2_6740  1
    RHS1      constraint2_6741  1
    RHS1      constraint2_6742  1
    RHS1      constraint2_6743  1
    RHS1      constraint2_5720  1
    RHS1      constraint2_5721  1
    RHS1      constraint2_5722  1
    RHS1      constraint2_5723  1
    RHS1      constraint2_3530  1
    RHS1      constraint2_3531  1
    RHS1      constraint2_3532  1
    RHS1      constraint2_3533  1
    RHS1      constraint2_10  1
    RHS1      constraint2_11  1
    RHS1      constraint2_12  1
    RHS1      constraint2_13  1
    RHS1      constraint2_4790  1
    RHS1      constraint2_4791  1
    RHS1      constraint2_4792  1
    RHS1      constraint2_4793  1
    RHS1      constraint2_6980  1
    RHS1      constraint2_6981  1
    RHS1      constraint2_6982  1
    RHS1      constraint2_6983  1
BOUNDS
 UP BND1      Z_565_0_0  1
 UP BND1      Z_565_0_1  1
 UP BND1      Z_565_0_2  1
 UP BND1      Z_565_0_3  1
 UP BND1      Z_565_0_4  1
 UP BND1      Z_742_0_0  1
 UP BND1      Z_742_0_1  1
 UP BND1      Z_742_0_2  1
 UP BND1      Z_742_0_3  1
 UP BND1      Z_742_0_4  1
 UP BND1      Z_207_1_0  1
 UP BND1      Z_207_1_1  1
 UP BND1      Z_207_1_2  1
 UP BND1      Z_207_1_3  1
 UP BND1      Z_207_1_4  1
 UP BND1      Z_207_0_0  1
 UP BND1      Z_207_0_1  1
 UP BND1      Z_207_0_2  1
 UP BND1      Z_207_0_3  1
 UP BND1      Z_207_0_4  1
 UP BND1      Z_415_0_0  1
 UP BND1      Z_415_0_1  1
 UP BND1      Z_415_0_2  1
 UP BND1      Z_415_0_3  1
 UP BND1      Z_415_0_4  1
 UP BND1      Z_171_0_0  1
 UP BND1      Z_171_0_1  1
 UP BND1      Z_171_0_2  1
 UP BND1      Z_171_0_3  1
 UP BND1      Z_171_0_4  1
 UP BND1      Z_178_0_0  1
 UP BND1      Z_178_0_1  1
 UP BND1      Z_178_0_2  1
 UP BND1      Z_178_0_3  1
 UP BND1      Z_178_0_4  1
 UP BND1      Z_257_9_0  1
 UP BND1      Z_257_9_1  1
 UP BND1      Z_257_9_2  1
 UP BND1      Z_257_9_3  1
 UP BND1      Z_257_9_4  1
 UP BND1      Z_257_0_0  1
 UP BND1      Z_257_0_1  1
 UP BND1      Z_257_0_2  1
 UP BND1      Z_257_0_3  1
 UP BND1      Z_257_0_4  1
 UP BND1      Z_257_2_0  1
 UP BND1      Z_257_2_1  1
 UP BND1      Z_257_2_2  1
 UP BND1      Z_257_2_3  1
 UP BND1      Z_257_2_4  1
 UP BND1      Z_257_1_0  1
 UP BND1      Z_257_1_1  1
 UP BND1      Z_257_1_2  1
 UP BND1      Z_257_1_3  1
 UP BND1      Z_257_1_4  1
 UP BND1      Z_641_0_0  1
 UP BND1      Z_641_0_1  1
 UP BND1      Z_641_0_2  1
 UP BND1      Z_641_0_3  1
 UP BND1      Z_641_0_4  1
 UP BND1      Z_176_0_0  1
 UP BND1      Z_176_0_1  1
 UP BND1      Z_176_0_2  1
 UP BND1      Z_176_0_3  1
 UP BND1      Z_176_0_4  1
 UP BND1      Z_176_1_0  1
 UP BND1      Z_176_1_1  1
 UP BND1      Z_176_1_2  1
 UP BND1      Z_176_1_3  1
 UP BND1      Z_176_1_4  1
 UP BND1      Z_419_0_0  1
 UP BND1      Z_419_0_1  1
 UP BND1      Z_419_0_2  1
 UP BND1      Z_419_0_3  1
 UP BND1      Z_419_0_4  1
 UP BND1      Z_468_0_0  1
 UP BND1      Z_468_0_1  1
 UP BND1      Z_468_0_2  1
 UP BND1      Z_468_0_3  1
 UP BND1      Z_468_0_4  1
 UP BND1      Z_468_1_0  1
 UP BND1      Z_468_1_1  1
 UP BND1      Z_468_1_2  1
 UP BND1      Z_468_1_3  1
 UP BND1      Z_468_1_4  1
 UP BND1      Z_477_0_0  1
 UP BND1      Z_477_0_1  1
 UP BND1      Z_477_0_2  1
 UP BND1      Z_477_0_3  1
 UP BND1      Z_477_0_4  1
 UP BND1      Z_477_1_0  1
 UP BND1      Z_477_1_1  1
 UP BND1      Z_477_1_2  1
 UP BND1      Z_477_1_3  1
 UP BND1      Z_477_1_4  1
 UP BND1      Z_658_0_0  1
 UP BND1      Z_658_0_1  1
 UP BND1      Z_658_0_2  1
 UP BND1      Z_658_0_3  1
 UP BND1      Z_658_0_4  1
 UP BND1      Z_114_0_0  1
 UP BND1      Z_114_0_1  1
 UP BND1      Z_114_0_2  1
 UP BND1      Z_114_0_3  1
 UP BND1      Z_114_0_4  1
 UP BND1      Z_114_1_0  1
 UP BND1      Z_114_1_1  1
 UP BND1      Z_114_1_2  1
 UP BND1      Z_114_1_3  1
 UP BND1      Z_114_1_4  1
 UP BND1      Z_581_1_0  1
 UP BND1      Z_581_1_1  1
 UP BND1      Z_581_1_2  1
 UP BND1      Z_581_1_3  1
 UP BND1      Z_581_1_4  1
 UP BND1      Z_581_0_0  1
 UP BND1      Z_581_0_1  1
 UP BND1      Z_581_0_2  1
 UP BND1      Z_581_0_3  1
 UP BND1      Z_581_0_4  1
 UP BND1      Z_97_0_0  1
 UP BND1      Z_97_0_1  1
 UP BND1      Z_97_0_2  1
 UP BND1      Z_97_0_3  1
 UP BND1      Z_97_0_4  1
 UP BND1      Z_732_0_0  1
 UP BND1      Z_732_0_1  1
 UP BND1      Z_732_0_2  1
 UP BND1      Z_732_0_3  1
 UP BND1      Z_732_0_4  1
 UP BND1      Z_732_1_0  1
 UP BND1      Z_732_1_1  1
 UP BND1      Z_732_1_2  1
 UP BND1      Z_732_1_3  1
 UP BND1      Z_732_1_4  1
 UP BND1      Z_674_0_0  1
 UP BND1      Z_674_0_1  1
 UP BND1      Z_674_0_2  1
 UP BND1      Z_674_0_3  1
 UP BND1      Z_674_0_4  1
 UP BND1      Z_674_1_0  1
 UP BND1      Z_674_1_1  1
 UP BND1      Z_674_1_2  1
 UP BND1      Z_674_1_3  1
 UP BND1      Z_674_1_4  1
 UP BND1      Z_479_0_0  1
 UP BND1      Z_479_0_1  1
 UP BND1      Z_479_0_2  1
 UP BND1      Z_479_0_3  1
 UP BND1      Z_479_0_4  1
 UP BND1      Z_698_1_0  1
 UP BND1      Z_698_1_1  1
 UP BND1      Z_698_1_2  1
 UP BND1      Z_698_1_3  1
 UP BND1      Z_698_1_4  1
 UP BND1      Z_698_3_0  1
 UP BND1      Z_698_3_1  1
 UP BND1      Z_698_3_2  1
 UP BND1      Z_698_3_3  1
 UP BND1      Z_698_3_4  1
 UP BND1      Z_698_0_0  1
 UP BND1      Z_698_0_1  1
 UP BND1      Z_698_0_2  1
 UP BND1      Z_698_0_3  1
 UP BND1      Z_698_0_4  1
 UP BND1      Z_698_2_0  1
 UP BND1      Z_698_2_1  1
 UP BND1      Z_698_2_2  1
 UP BND1      Z_698_2_3  1
 UP BND1      Z_698_2_4  1
ENDATA
